(set-info :smt-lib-version 2.6)
(set-logic QF_NIA)
(set-info :source |
Generated by: Cristina Borralleras, Daniel Larraz, Albert Oliveras, Enric Rodriguez-Carbonell, Albert Rubio
Generated on: 2017-04-27
Generator: VeryMax
Application: Termination proving
Target solver: barcelogic
|)
(set-info :license "https://creativecommons.org/licenses/by/4.0/")
(set-info :category "industrial")
(set-info :status unknown)
(declare-fun Nl2main_i1 () Int)
(declare-fun Nl2main_i2 () Int)
(declare-fun Nl2main_i3 () Int)
(declare-fun lam0n0 () Int)
(declare-fun lam0n1 () Int)
(declare-fun lam0n2 () Int)
(declare-fun lam0n3 () Int)
(declare-fun Nl2CT1 () Int)
(declare-fun Nl2CT2 () Int)
(declare-fun Nl2CT3 () Int)
(declare-fun lam1n0 () Int)
(declare-fun lam1n1 () Int)
(declare-fun lam1n2 () Int)
(declare-fun lam1n3 () Int)
(declare-fun lam2n0 () Int)
(declare-fun lam2n1 () Int)
(declare-fun lam2n2 () Int)
(declare-fun lam2n3 () Int)
(declare-fun lam3n0 () Int)
(declare-fun lam3n1 () Int)
(declare-fun lam3n2 () Int)
(declare-fun lam3n3 () Int)
(declare-fun lam4n0 () Int)
(declare-fun lam4n1 () Int)
(declare-fun lam5n0 () Int)
(declare-fun lam5n1 () Int)
(declare-fun lam6n0 () Int)
(declare-fun lam6n1 () Int)
(declare-fun main_i () Int)
(declare-fun undef2 () Int)
(declare-fun lam7n0 () Int)
(declare-fun lam7n1 () Int)
(declare-fun lam7n2 () Int)
(declare-fun lam8n0 () Int)
(declare-fun lam8n1 () Int)
(declare-fun lam8n2 () Int)
(assert ( and ( <= ( - 1 ) Nl2main_i1 ) ( <= Nl2main_i1 1 ) ( <= ( - 1 ) Nl2main_i2 ) ( <= Nl2main_i2 1 ) ( <= ( - 1 ) Nl2main_i3 ) ( <= Nl2main_i3 1 ) ))
(assert ( or ( and ( >= lam0n0 0 ) ( >= lam0n1 0 ) ( >= lam0n2 0 ) ( >= lam0n3 0 ) ( > ( + ( * 5 lam0n0 ) ( * Nl2CT1 lam0n1 ) ( * Nl2CT2 lam0n2 ) ( * Nl2CT3 lam0n3 ) ( - 1 ) ) 0 ) ( = ( + ( * 1 lam0n0 ) ( * Nl2main_i1 lam0n1 ) ( * Nl2main_i2 lam0n2 ) ( * Nl2main_i3 lam0n3 ) ) 0 ) ) ( and ( >= lam1n0 0 ) ( >= lam1n1 0 ) ( >= lam1n2 0 ) ( >= lam1n3 0 ) ( > ( + ( * 5 lam1n0 ) ( * Nl2CT1 lam1n1 ) ( * Nl2CT2 lam1n2 ) ( * Nl2CT3 lam1n3 ) ( - 1 Nl2CT1 ) ) 0 ) ( = ( + ( * 1 lam1n0 ) ( * Nl2main_i1 lam1n1 ) ( * Nl2main_i2 lam1n2 ) ( * Nl2main_i3 lam1n3 ) ( - ( + 0 Nl2main_i1 ) ) ) 0 ) ) ))
(assert ( or ( and ( >= lam0n0 0 ) ( >= lam0n1 0 ) ( >= lam0n2 0 ) ( >= lam0n3 0 ) ( > ( + ( * 5 lam0n0 ) ( * Nl2CT1 lam0n1 ) ( * Nl2CT2 lam0n2 ) ( * Nl2CT3 lam0n3 ) ( - 1 ) ) 0 ) ( = ( + ( * 1 lam0n0 ) ( * Nl2main_i1 lam0n1 ) ( * Nl2main_i2 lam0n2 ) ( * Nl2main_i3 lam0n3 ) ) 0 ) ) ( and ( >= lam2n0 0 ) ( >= lam2n1 0 ) ( >= lam2n2 0 ) ( >= lam2n3 0 ) ( > ( + ( * 5 lam2n0 ) ( * Nl2CT1 lam2n1 ) ( * Nl2CT2 lam2n2 ) ( * Nl2CT3 lam2n3 ) ( - 1 Nl2CT2 ) ) 0 ) ( = ( + ( * 1 lam2n0 ) ( * Nl2main_i1 lam2n1 ) ( * Nl2main_i2 lam2n2 ) ( * Nl2main_i3 lam2n3 ) ( - ( + 0 Nl2main_i2 ) ) ) 0 ) ) ))
(assert ( or ( and ( >= lam0n0 0 ) ( >= lam0n1 0 ) ( >= lam0n2 0 ) ( >= lam0n3 0 ) ( > ( + ( * 5 lam0n0 ) ( * Nl2CT1 lam0n1 ) ( * Nl2CT2 lam0n2 ) ( * Nl2CT3 lam0n3 ) ( - 1 ) ) 0 ) ( = ( + ( * 1 lam0n0 ) ( * Nl2main_i1 lam0n1 ) ( * Nl2main_i2 lam0n2 ) ( * Nl2main_i3 lam0n3 ) ) 0 ) ) ( and ( >= lam3n0 0 ) ( >= lam3n1 0 ) ( >= lam3n2 0 ) ( >= lam3n3 0 ) ( > ( + ( * 5 lam3n0 ) ( * Nl2CT1 lam3n1 ) ( * Nl2CT2 lam3n2 ) ( * Nl2CT3 lam3n3 ) ( - 1 Nl2CT3 ) ) 0 ) ( = ( + ( * 1 lam3n0 ) ( * Nl2main_i1 lam3n1 ) ( * Nl2main_i2 lam3n2 ) ( * Nl2main_i3 lam3n3 ) ( - ( + 0 Nl2main_i3 ) ) ) 0 ) ) ))
(assert ( and ( not ( <= ( + ( - 4 ) ( * ( - 1 ) main_i ) ) 0 ) ) ( = ( + main_i ( * ( - 1 ) undef2 ) ) 0 ) ( <= ( + Nl2CT1 ( * ( + 0 Nl2main_i1 ) main_i ) ) 0 ) ( <= ( + Nl2CT2 ( * ( + 0 Nl2main_i2 ) main_i ) ) 0 ) ( <= ( + Nl2CT3 ( * ( + 0 Nl2main_i3 ) main_i ) ) 0 ) ))
(assert ( or ( or ( and ( >= lam7n0 0 ) ( >= lam7n1 0 ) ( >= lam7n2 0 ) ( > ( + ( * Nl2CT1 lam7n0 ) ( * Nl2CT2 lam7n1 ) ( * Nl2CT3 lam7n2 ) ( - 1 ) ) 0 ) ( = ( + ( * Nl2main_i1 lam7n0 ) ( * Nl2main_i2 lam7n1 ) ( * Nl2main_i3 lam7n2 ) ) 0 ) ) ( and ( >= lam8n0 0 ) ( >= lam8n1 0 ) ( >= lam8n2 0 ) ( > ( + ( * Nl2CT1 lam8n0 ) ( * Nl2CT2 lam8n1 ) ( * Nl2CT3 lam8n2 ) 5 ) 0 ) ( = ( + ( * Nl2main_i1 lam8n0 ) ( * Nl2main_i2 lam8n1 ) ( * Nl2main_i3 lam8n2 ) 1 ) 0 ) ) ) ( and ( and ( not ( <= ( + ( - 4 ) ( * ( - 1 ) main_i ) ) 0 ) ) ( = ( + main_i ( * ( - 1 ) undef2 ) ) 0 ) ( <= ( + Nl2CT1 ( * ( + 0 Nl2main_i1 ) main_i ) ) 0 ) ( <= ( + Nl2CT2 ( * ( + 0 Nl2main_i2 ) main_i ) ) 0 ) ( <= ( + Nl2CT3 ( * ( + 0 Nl2main_i3 ) main_i ) ) 0 ) ) ( and ( >= lam0n0 0 ) ( >= lam0n1 0 ) ( >= lam0n2 0 ) ( >= lam0n3 0 ) ( > ( + ( * 5 lam0n0 ) ( * Nl2CT1 lam0n1 ) ( * Nl2CT2 lam0n2 ) ( * Nl2CT3 lam0n3 ) ( - 1 ) ) 0 ) ( = ( + ( * 1 lam0n0 ) ( * Nl2main_i1 lam0n1 ) ( * Nl2main_i2 lam0n2 ) ( * Nl2main_i3 lam0n3 ) ) 0 ) ) ) ))
(check-sat)
(exit)
